c File: flat150_3_0.col
c
c SOURCE: Joseph Culberson (joe@cs.ualberta.ca)
c DESCRIPTION: Quasi-random coloring problem
c              generated with flatness = 0
c                             probability = 0.048
c                             known coloring = 3
c                             random seed = 1023
c              Creation Date:  Wed Feb 24 10:37:21 1999
c Maximum degree = 8 Minimum degree = 0
c COLOR VERIFICATION: Using the permuted order
c under simple greedy yields the specified
c coloring number
c Color = 3 specified partitions = 3
c p edge 150 360
c cnf created by edge2cnf
p cnf 450 1680
-1 -2 0
-1 -3 0
-2 -3 0
1 2 3 0
-4 -5 0
-4 -6 0
-5 -6 0
4 5 6 0
-7 -8 0
-7 -9 0
-8 -9 0
7 8 9 0
-10 -11 0
-10 -12 0
-11 -12 0
10 11 12 0
-13 -14 0
-13 -15 0
-14 -15 0
13 14 15 0
-16 -17 0
-16 -18 0
-17 -18 0
16 17 18 0
-19 -20 0
-19 -21 0
-20 -21 0
19 20 21 0
-22 -23 0
-22 -24 0
-23 -24 0
22 23 24 0
-25 -26 0
-25 -27 0
-26 -27 0
25 26 27 0
-28 -29 0
-28 -30 0
-29 -30 0
28 29 30 0
-31 -32 0
-31 -33 0
-32 -33 0
31 32 33 0
-34 -35 0
-34 -36 0
-35 -36 0
34 35 36 0
-37 -38 0
-37 -39 0
-38 -39 0
37 38 39 0
-40 -41 0
-40 -42 0
-41 -42 0
40 41 42 0
-43 -44 0
-43 -45 0
-44 -45 0
43 44 45 0
-46 -47 0
-46 -48 0
-47 -48 0
46 47 48 0
-49 -50 0
-49 -51 0
-50 -51 0
49 50 51 0
-52 -53 0
-52 -54 0
-53 -54 0
52 53 54 0
-55 -56 0
-55 -57 0
-56 -57 0
55 56 57 0
-58 -59 0
-58 -60 0
-59 -60 0
58 59 60 0
-61 -62 0
-61 -63 0
-62 -63 0
61 62 63 0
-64 -65 0
-64 -66 0
-65 -66 0
64 65 66 0
-67 -68 0
-67 -69 0
-68 -69 0
67 68 69 0
-70 -71 0
-70 -72 0
-71 -72 0
70 71 72 0
-73 -74 0
-73 -75 0
-74 -75 0
73 74 75 0
-76 -77 0
-76 -78 0
-77 -78 0
76 77 78 0
-79 -80 0
-79 -81 0
-80 -81 0
79 80 81 0
-82 -83 0
-82 -84 0
-83 -84 0
82 83 84 0
-85 -86 0
-85 -87 0
-86 -87 0
85 86 87 0
-88 -89 0
-88 -90 0
-89 -90 0
88 89 90 0
-91 -92 0
-91 -93 0
-92 -93 0
91 92 93 0
-94 -95 0
-94 -96 0
-95 -96 0
94 95 96 0
-97 -98 0
-97 -99 0
-98 -99 0
97 98 99 0
-100 -101 0
-100 -102 0
-101 -102 0
100 101 102 0
-103 -104 0
-103 -105 0
-104 -105 0
103 104 105 0
-106 -107 0
-106 -108 0
-107 -108 0
106 107 108 0
-109 -110 0
-109 -111 0
-110 -111 0
109 110 111 0
-112 -113 0
-112 -114 0
-113 -114 0
112 113 114 0
-115 -116 0
-115 -117 0
-116 -117 0
115 116 117 0
-118 -119 0
-118 -120 0
-119 -120 0
118 119 120 0
-121 -122 0
-121 -123 0
-122 -123 0
121 122 123 0
-124 -125 0
-124 -126 0
-125 -126 0
124 125 126 0
-127 -128 0
-127 -129 0
-128 -129 0
127 128 129 0
-130 -131 0
-130 -132 0
-131 -132 0
130 131 132 0
-133 -134 0
-133 -135 0
-134 -135 0
133 134 135 0
-136 -137 0
-136 -138 0
-137 -138 0
136 137 138 0
-139 -140 0
-139 -141 0
-140 -141 0
139 140 141 0
-142 -143 0
-142 -144 0
-143 -144 0
142 143 144 0
-145 -146 0
-145 -147 0
-146 -147 0
145 146 147 0
-148 -149 0
-148 -150 0
-149 -150 0
148 149 150 0
-151 -152 0
-151 -153 0
-152 -153 0
151 152 153 0
-154 -155 0
-154 -156 0
-155 -156 0
154 155 156 0
-157 -158 0
-157 -159 0
-158 -159 0
157 158 159 0
-160 -161 0
-160 -162 0
-161 -162 0
160 161 162 0
-163 -164 0
-163 -165 0
-164 -165 0
163 164 165 0
-166 -167 0
-166 -168 0
-167 -168 0
166 167 168 0
-169 -170 0
-169 -171 0
-170 -171 0
169 170 171 0
-172 -173 0
-172 -174 0
-173 -174 0
172 173 174 0
-175 -176 0
-175 -177 0
-176 -177 0
175 176 177 0
-178 -179 0
-178 -180 0
-179 -180 0
178 179 180 0
-181 -182 0
-181 -183 0
-182 -183 0
181 182 183 0
-184 -185 0
-184 -186 0
-185 -186 0
184 185 186 0
-187 -188 0
-187 -189 0
-188 -189 0
187 188 189 0
-190 -191 0
-190 -192 0
-191 -192 0
190 191 192 0
-193 -194 0
-193 -195 0
-194 -195 0
193 194 195 0
-196 -197 0
-196 -198 0
-197 -198 0
196 197 198 0
-199 -200 0
-199 -201 0
-200 -201 0
199 200 201 0
-202 -203 0
-202 -204 0
-203 -204 0
202 203 204 0
-205 -206 0
-205 -207 0
-206 -207 0
205 206 207 0
-208 -209 0
-208 -210 0
-209 -210 0
208 209 210 0
-211 -212 0
-211 -213 0
-212 -213 0
211 212 213 0
-214 -215 0
-214 -216 0
-215 -216 0
214 215 216 0
-217 -218 0
-217 -219 0
-218 -219 0
217 218 219 0
-220 -221 0
-220 -222 0
-221 -222 0
220 221 222 0
-223 -224 0
-223 -225 0
-224 -225 0
223 224 225 0
-226 -227 0
-226 -228 0
-227 -228 0
226 227 228 0
-229 -230 0
-229 -231 0
-230 -231 0
229 230 231 0
-232 -233 0
-232 -234 0
-233 -234 0
232 233 234 0
-235 -236 0
-235 -237 0
-236 -237 0
235 236 237 0
-238 -239 0
-238 -240 0
-239 -240 0
238 239 240 0
-241 -242 0
-241 -243 0
-242 -243 0
241 242 243 0
-244 -245 0
-244 -246 0
-245 -246 0
244 245 246 0
-247 -248 0
-247 -249 0
-248 -249 0
247 248 249 0
-250 -251 0
-250 -252 0
-251 -252 0
250 251 252 0
-253 -254 0
-253 -255 0
-254 -255 0
253 254 255 0
-256 -257 0
-256 -258 0
-257 -258 0
256 257 258 0
-259 -260 0
-259 -261 0
-260 -261 0
259 260 261 0
-262 -263 0
-262 -264 0
-263 -264 0
262 263 264 0
-265 -266 0
-265 -267 0
-266 -267 0
265 266 267 0
-268 -269 0
-268 -270 0
-269 -270 0
268 269 270 0
-271 -272 0
-271 -273 0
-272 -273 0
271 272 273 0
-274 -275 0
-274 -276 0
-275 -276 0
274 275 276 0
-277 -278 0
-277 -279 0
-278 -279 0
277 278 279 0
-280 -281 0
-280 -282 0
-281 -282 0
280 281 282 0
-283 -284 0
-283 -285 0
-284 -285 0
283 284 285 0
-286 -287 0
-286 -288 0
-287 -288 0
286 287 288 0
-289 -290 0
-289 -291 0
-290 -291 0
289 290 291 0
-292 -293 0
-292 -294 0
-293 -294 0
292 293 294 0
-295 -296 0
-295 -297 0
-296 -297 0
295 296 297 0
-298 -299 0
-298 -300 0
-299 -300 0
298 299 300 0
-301 -302 0
-301 -303 0
-302 -303 0
301 302 303 0
-304 -305 0
-304 -306 0
-305 -306 0
304 305 306 0
-307 -308 0
-307 -309 0
-308 -309 0
307 308 309 0
-310 -311 0
-310 -312 0
-311 -312 0
310 311 312 0
-313 -314 0
-313 -315 0
-314 -315 0
313 314 315 0
-316 -317 0
-316 -318 0
-317 -318 0
316 317 318 0
-319 -320 0
-319 -321 0
-320 -321 0
319 320 321 0
-322 -323 0
-322 -324 0
-323 -324 0
322 323 324 0
-325 -326 0
-325 -327 0
-326 -327 0
325 326 327 0
-328 -329 0
-328 -330 0
-329 -330 0
328 329 330 0
-331 -332 0
-331 -333 0
-332 -333 0
331 332 333 0
-334 -335 0
-334 -336 0
-335 -336 0
334 335 336 0
-337 -338 0
-337 -339 0
-338 -339 0
337 338 339 0
-340 -341 0
-340 -342 0
-341 -342 0
340 341 342 0
-343 -344 0
-343 -345 0
-344 -345 0
343 344 345 0
-346 -347 0
-346 -348 0
-347 -348 0
346 347 348 0
-349 -350 0
-349 -351 0
-350 -351 0
349 350 351 0
-352 -353 0
-352 -354 0
-353 -354 0
352 353 354 0
-355 -356 0
-355 -357 0
-356 -357 0
355 356 357 0
-358 -359 0
-358 -360 0
-359 -360 0
358 359 360 0
-361 -362 0
-361 -363 0
-362 -363 0
361 362 363 0
-364 -365 0
-364 -366 0
-365 -366 0
364 365 366 0
-367 -368 0
-367 -369 0
-368 -369 0
367 368 369 0
-370 -371 0
-370 -372 0
-371 -372 0
370 371 372 0
-373 -374 0
-373 -375 0
-374 -375 0
373 374 375 0
-376 -377 0
-376 -378 0
-377 -378 0
376 377 378 0
-379 -380 0
-379 -381 0
-380 -381 0
379 380 381 0
-382 -383 0
-382 -384 0
-383 -384 0
382 383 384 0
-385 -386 0
-385 -387 0
-386 -387 0
385 386 387 0
-388 -389 0
-388 -390 0
-389 -390 0
388 389 390 0
-391 -392 0
-391 -393 0
-392 -393 0
391 392 393 0
-394 -395 0
-394 -396 0
-395 -396 0
394 395 396 0
-397 -398 0
-397 -399 0
-398 -399 0
397 398 399 0
-400 -401 0
-400 -402 0
-401 -402 0
400 401 402 0
-403 -404 0
-403 -405 0
-404 -405 0
403 404 405 0
-406 -407 0
-406 -408 0
-407 -408 0
406 407 408 0
-409 -410 0
-409 -411 0
-410 -411 0
409 410 411 0
-412 -413 0
-412 -414 0
-413 -414 0
412 413 414 0
-415 -416 0
-415 -417 0
-416 -417 0
415 416 417 0
-418 -419 0
-418 -420 0
-419 -420 0
418 419 420 0
-421 -422 0
-421 -423 0
-422 -423 0
421 422 423 0
-424 -425 0
-424 -426 0
-425 -426 0
424 425 426 0
-427 -428 0
-427 -429 0
-428 -429 0
427 428 429 0
-430 -431 0
-430 -432 0
-431 -432 0
430 431 432 0
-433 -434 0
-433 -435 0
-434 -435 0
433 434 435 0
-436 -437 0
-436 -438 0
-437 -438 0
436 437 438 0
-439 -440 0
-439 -441 0
-440 -441 0
439 440 441 0
-442 -443 0
-442 -444 0
-443 -444 0
442 443 444 0
-445 -446 0
-445 -447 0
-446 -447 0
445 446 447 0
-448 -449 0
-448 -450 0
-449 -450 0
448 449 450 0
-28 -1 0
-29 -2 0
-30 -3 0
-70 -1 0
-71 -2 0
-72 -3 0
-76 -1 0
-77 -2 0
-78 -3 0
-79 -1 0
-80 -2 0
-81 -3 0
-28 -4 0
-29 -5 0
-30 -6 0
-55 -4 0
-56 -5 0
-57 -6 0
-145 -4 0
-146 -5 0
-147 -6 0
-211 -4 0
-212 -5 0
-213 -6 0
-346 -4 0
-347 -5 0
-348 -6 0
-358 -4 0
-359 -5 0
-360 -6 0
-385 -4 0
-386 -5 0
-387 -6 0
-13 -7 0
-14 -8 0
-15 -9 0
-82 -7 0
-83 -8 0
-84 -9 0
-100 -7 0
-101 -8 0
-102 -9 0
-184 -7 0
-185 -8 0
-186 -9 0
-346 -7 0
-347 -8 0
-348 -9 0
-61 -10 0
-62 -11 0
-63 -12 0
-121 -10 0
-122 -11 0
-123 -12 0
-130 -10 0
-131 -11 0
-132 -12 0
-163 -10 0
-164 -11 0
-165 -12 0
-298 -10 0
-299 -11 0
-300 -12 0
-436 -10 0
-437 -11 0
-438 -12 0
-55 -13 0
-56 -14 0
-57 -15 0
-250 -13 0
-251 -14 0
-252 -15 0
-277 -13 0
-278 -14 0
-279 -15 0
-100 -16 0
-101 -17 0
-102 -18 0
-211 -16 0
-212 -17 0
-213 -18 0
-292 -16 0
-293 -17 0
-294 -18 0
-364 -16 0
-365 -17 0
-366 -18 0
-43 -19 0
-44 -20 0
-45 -21 0
-52 -19 0
-53 -20 0
-54 -21 0
-145 -19 0
-146 -20 0
-147 -21 0
-157 -19 0
-158 -20 0
-159 -21 0
-178 -19 0
-179 -20 0
-180 -21 0
-232 -19 0
-233 -20 0
-234 -21 0
-394 -19 0
-395 -20 0
-396 -21 0
-223 -22 0
-224 -23 0
-225 -24 0
-229 -22 0
-230 -23 0
-231 -24 0
-52 -25 0
-53 -26 0
-54 -27 0
-103 -25 0
-104 -26 0
-105 -27 0
-241 -25 0
-242 -26 0
-243 -27 0
-295 -25 0
-296 -26 0
-297 -27 0
-379 -25 0
-380 -26 0
-381 -27 0
-448 -25 0
-449 -26 0
-450 -27 0
-397 -28 0
-398 -29 0
-399 -30 0
-418 -28 0
-419 -29 0
-420 -30 0
-439 -28 0
-440 -29 0
-441 -30 0
-70 -31 0
-71 -32 0
-72 -33 0
-127 -31 0
-128 -32 0
-129 -33 0
-322 -31 0
-323 -32 0
-324 -33 0
-355 -31 0
-356 -32 0
-357 -33 0
-355 -34 0
-356 -35 0
-357 -36 0
-397 -34 0
-398 -35 0
-399 -36 0
-82 -37 0
-83 -38 0
-84 -39 0
-313 -37 0
-314 -38 0
-315 -39 0
-406 -37 0
-407 -38 0
-408 -39 0
-421 -37 0
-422 -38 0
-423 -39 0
-430 -37 0
-431 -38 0
-432 -39 0
-190 -40 0
-191 -41 0
-192 -42 0
-217 -40 0
-218 -41 0
-219 -42 0
-268 -40 0
-269 -41 0
-270 -42 0
-286 -40 0
-287 -41 0
-288 -42 0
-310 -40 0
-311 -41 0
-312 -42 0
-367 -40 0
-368 -41 0
-369 -42 0
-55 -43 0
-56 -44 0
-57 -45 0
-106 -43 0
-107 -44 0
-108 -45 0
-202 -43 0
-203 -44 0
-204 -45 0
-232 -43 0
-233 -44 0
-234 -45 0
-268 -43 0
-269 -44 0
-270 -45 0
-313 -43 0
-314 -44 0
-315 -45 0
-445 -43 0
-446 -44 0
-447 -45 0
-67 -46 0
-68 -47 0
-69 -48 0
-85 -46 0
-86 -47 0
-87 -48 0
-196 -46 0
-197 -47 0
-198 -48 0
-223 -46 0
-224 -47 0
-225 -48 0
-367 -46 0
-368 -47 0
-369 -48 0
-385 -46 0
-386 -47 0
-387 -48 0
-403 -46 0
-404 -47 0
-405 -48 0
-127 -49 0
-128 -50 0
-129 -51 0
-226 -49 0
-227 -50 0
-228 -51 0
-262 -49 0
-263 -50 0
-264 -51 0
-265 -49 0
-266 -50 0
-267 -51 0
-379 -49 0
-380 -50 0
-381 -51 0
-55 -52 0
-56 -53 0
-57 -54 0
-109 -52 0
-110 -53 0
-111 -54 0
-154 -52 0
-155 -53 0
-156 -54 0
-181 -52 0
-182 -53 0
-183 -54 0
-172 -55 0
-173 -56 0
-174 -57 0
-289 -55 0
-290 -56 0
-291 -57 0
-310 -55 0
-311 -56 0
-312 -57 0
-349 -55 0
-350 -56 0
-351 -57 0
-139 -58 0
-140 -59 0
-141 -60 0
-160 -58 0
-161 -59 0
-162 -60 0
-211 -58 0
-212 -59 0
-213 -60 0
-322 -58 0
-323 -59 0
-324 -60 0
-331 -58 0
-332 -59 0
-333 -60 0
-91 -61 0
-92 -62 0
-93 -63 0
-109 -61 0
-110 -62 0
-111 -63 0
-142 -61 0
-143 -62 0
-144 -63 0
-271 -61 0
-272 -62 0
-273 -63 0
-421 -61 0
-422 -62 0
-423 -63 0
-178 -64 0
-179 -65 0
-180 -66 0
-355 -64 0
-356 -65 0
-357 -66 0
-187 -67 0
-188 -68 0
-189 -69 0
-235 -67 0
-236 -68 0
-237 -69 0
-412 -67 0
-413 -68 0
-414 -69 0
-169 -70 0
-170 -71 0
-171 -72 0
-385 -70 0
-386 -71 0
-387 -72 0
-283 -73 0
-284 -74 0
-285 -75 0
-418 -73 0
-419 -74 0
-420 -75 0
-85 -76 0
-86 -77 0
-87 -78 0
-208 -76 0
-209 -77 0
-210 -78 0
-340 -76 0
-341 -77 0
-342 -78 0
-376 -76 0
-377 -77 0
-378 -78 0
-124 -79 0
-125 -80 0
-126 -81 0
-130 -79 0
-131 -80 0
-132 -81 0
-250 -79 0
-251 -80 0
-252 -81 0
-271 -79 0
-272 -80 0
-273 -81 0
-292 -79 0
-293 -80 0
-294 -81 0
-130 -82 0
-131 -83 0
-132 -84 0
-196 -82 0
-197 -83 0
-198 -84 0
-229 -82 0
-230 -83 0
-231 -84 0
-295 -82 0
-296 -83 0
-297 -84 0
-397 -82 0
-398 -83 0
-399 -84 0
-178 -85 0
-179 -86 0
-180 -87 0
-226 -85 0
-227 -86 0
-228 -87 0
-241 -85 0
-242 -86 0
-243 -87 0
-298 -85 0
-299 -86 0
-300 -87 0
-358 -85 0
-359 -86 0
-360 -87 0
-370 -85 0
-371 -86 0
-372 -87 0
-154 -88 0
-155 -89 0
-156 -90 0
-244 -88 0
-245 -89 0
-246 -90 0
-325 -88 0
-326 -89 0
-327 -90 0
-370 -88 0
-371 -89 0
-372 -90 0
-394 -88 0
-395 -89 0
-396 -90 0
-415 -88 0
-416 -89 0
-417 -90 0
-163 -91 0
-164 -92 0
-165 -93 0
-241 -91 0
-242 -92 0
-243 -93 0
-280 -91 0
-281 -92 0
-282 -93 0
-352 -91 0
-353 -92 0
-354 -93 0
-418 -91 0
-419 -92 0
-420 -93 0
-424 -91 0
-425 -92 0
-426 -93 0
-445 -91 0
-446 -92 0
-447 -93 0
-112 -94 0
-113 -95 0
-114 -96 0
-226 -94 0
-227 -95 0
-228 -96 0
-307 -94 0
-308 -95 0
-309 -96 0
-313 -94 0
-314 -95 0
-315 -96 0
-358 -94 0
-359 -95 0
-360 -96 0
-418 -94 0
-419 -95 0
-420 -96 0
-130 -97 0
-131 -98 0
-132 -99 0
-334 -97 0
-335 -98 0
-336 -99 0
-382 -97 0
-383 -98 0
-384 -99 0
-412 -97 0
-413 -98 0
-414 -99 0
-265 -100 0
-266 -101 0
-267 -102 0
-424 -100 0
-425 -101 0
-426 -102 0
-124 -103 0
-125 -104 0
-126 -105 0
-151 -103 0
-152 -104 0
-153 -105 0
-160 -103 0
-161 -104 0
-162 -105 0
-340 -103 0
-341 -104 0
-342 -105 0
-367 -103 0
-368 -104 0
-369 -105 0
-400 -103 0
-401 -104 0
-402 -105 0
-430 -103 0
-431 -104 0
-432 -105 0
-112 -106 0
-113 -107 0
-114 -108 0
-283 -106 0
-284 -107 0
-285 -108 0
-295 -106 0
-296 -107 0
-297 -108 0
-373 -106 0
-374 -107 0
-375 -108 0
-403 -106 0
-404 -107 0
-405 -108 0
-130 -109 0
-131 -110 0
-132 -111 0
-361 -109 0
-362 -110 0
-363 -111 0
-424 -109 0
-425 -110 0
-426 -111 0
-163 -115 0
-164 -116 0
-165 -117 0
-316 -115 0
-317 -116 0
-318 -117 0
-445 -115 0
-446 -116 0
-447 -117 0
-232 -118 0
-233 -119 0
-234 -120 0
-238 -118 0
-239 -119 0
-240 -120 0
-280 -118 0
-281 -119 0
-282 -120 0
-409 -118 0
-410 -119 0
-411 -120 0
-214 -121 0
-215 -122 0
-216 -123 0
-217 -121 0
-218 -122 0
-219 -123 0
-223 -121 0
-224 -122 0
-225 -123 0
-358 -121 0
-359 -122 0
-360 -123 0
-370 -121 0
-371 -122 0
-372 -123 0
-181 -124 0
-182 -125 0
-183 -126 0
-196 -124 0
-197 -125 0
-198 -126 0
-346 -124 0
-347 -125 0
-348 -126 0
-178 -130 0
-179 -131 0
-180 -132 0
-376 -130 0
-377 -131 0
-378 -132 0
-175 -133 0
-176 -134 0
-177 -135 0
-367 -133 0
-368 -134 0
-369 -135 0
-448 -133 0
-449 -134 0
-450 -135 0
-262 -136 0
-263 -137 0
-264 -138 0
-448 -136 0
-449 -137 0
-450 -138 0
-172 -139 0
-173 -140 0
-174 -141 0
-385 -139 0
-386 -140 0
-387 -141 0
-436 -139 0
-437 -140 0
-438 -141 0
-208 -142 0
-209 -143 0
-210 -144 0
-214 -142 0
-215 -143 0
-216 -144 0
-307 -142 0
-308 -143 0
-309 -144 0
-181 -145 0
-182 -146 0
-183 -147 0
-268 -145 0
-269 -146 0
-270 -147 0
-325 -145 0
-326 -146 0
-327 -147 0
-355 -145 0
-356 -146 0
-357 -147 0
-229 -148 0
-230 -149 0
-231 -150 0
-409 -148 0
-410 -149 0
-411 -150 0
-268 -151 0
-269 -152 0
-270 -153 0
-403 -151 0
-404 -152 0
-405 -153 0
-232 -154 0
-233 -155 0
-234 -156 0
-310 -154 0
-311 -155 0
-312 -156 0
-376 -154 0
-377 -155 0
-378 -156 0
-379 -154 0
-380 -155 0
-381 -156 0
-415 -154 0
-416 -155 0
-417 -156 0
-283 -157 0
-284 -158 0
-285 -159 0
-307 -157 0
-308 -158 0
-309 -159 0
-445 -157 0
-446 -158 0
-447 -159 0
-181 -160 0
-182 -161 0
-183 -162 0
-187 -160 0
-188 -161 0
-189 -162 0
-247 -160 0
-248 -161 0
-249 -162 0
-313 -160 0
-314 -161 0
-315 -162 0
-370 -160 0
-371 -161 0
-372 -162 0
-442 -160 0
-443 -161 0
-444 -162 0
-286 -163 0
-287 -164 0
-288 -165 0
-184 -166 0
-185 -167 0
-186 -168 0
-208 -166 0
-209 -167 0
-210 -168 0
-226 -166 0
-227 -167 0
-228 -168 0
-247 -166 0
-248 -167 0
-249 -168 0
-319 -166 0
-320 -167 0
-321 -168 0
-370 -166 0
-371 -167 0
-372 -168 0
-217 -169 0
-218 -170 0
-219 -171 0
-232 -169 0
-233 -170 0
-234 -171 0
-277 -169 0
-278 -170 0
-279 -171 0
-283 -169 0
-284 -170 0
-285 -171 0
-322 -169 0
-323 -170 0
-324 -171 0
-415 -169 0
-416 -170 0
-417 -171 0
-253 -172 0
-254 -173 0
-255 -174 0
-316 -172 0
-317 -173 0
-318 -174 0
-337 -172 0
-338 -173 0
-339 -174 0
-376 -172 0
-377 -173 0
-378 -174 0
-397 -172 0
-398 -173 0
-399 -174 0
-202 -175 0
-203 -176 0
-204 -177 0
-436 -178 0
-437 -179 0
-438 -180 0
-217 -181 0
-218 -182 0
-219 -183 0
-418 -181 0
-419 -182 0
-420 -183 0
-244 -184 0
-245 -185 0
-246 -186 0
-271 -184 0
-272 -185 0
-273 -186 0
-424 -184 0
-425 -185 0
-426 -186 0
-448 -184 0
-449 -185 0
-450 -186 0
-304 -187 0
-305 -188 0
-306 -189 0
-310 -187 0
-311 -188 0
-312 -189 0
-337 -187 0
-338 -188 0
-339 -189 0
-229 -190 0
-230 -191 0
-231 -192 0
-292 -193 0
-293 -194 0
-294 -195 0
-301 -193 0
-302 -194 0
-303 -195 0
-304 -193 0
-305 -194 0
-306 -195 0
-412 -193 0
-413 -194 0
-414 -195 0
-262 -199 0
-263 -200 0
-264 -201 0
-280 -199 0
-281 -200 0
-282 -201 0
-298 -199 0
-299 -200 0
-300 -201 0
-364 -199 0
-365 -200 0
-366 -201 0
-211 -202 0
-212 -203 0
-213 -204 0
-259 -202 0
-260 -203 0
-261 -204 0
-340 -202 0
-341 -203 0
-342 -204 0
-403 -202 0
-404 -203 0
-405 -204 0
-229 -205 0
-230 -206 0
-231 -207 0
-418 -205 0
-419 -206 0
-420 -207 0
-427 -205 0
-428 -206 0
-429 -207 0
-295 -208 0
-296 -209 0
-297 -210 0
-364 -208 0
-365 -209 0
-366 -210 0
-379 -208 0
-380 -209 0
-381 -210 0
-376 -211 0
-377 -212 0
-378 -213 0
-406 -211 0
-407 -212 0
-408 -213 0
-232 -214 0
-233 -215 0
-234 -216 0
-274 -214 0
-275 -215 0
-276 -216 0
-280 -214 0
-281 -215 0
-282 -216 0
-364 -214 0
-365 -215 0
-366 -216 0
-271 -220 0
-272 -221 0
-273 -222 0
-307 -220 0
-308 -221 0
-309 -222 0
-412 -220 0
-413 -221 0
-414 -222 0
-277 -223 0
-278 -224 0
-279 -225 0
-376 -223 0
-377 -224 0
-378 -225 0
-253 -226 0
-254 -227 0
-255 -228 0
-286 -232 0
-287 -233 0
-288 -234 0
-421 -232 0
-422 -233 0
-423 -234 0
-274 -235 0
-275 -236 0
-276 -237 0
-280 -235 0
-281 -236 0
-282 -237 0
-298 -235 0
-299 -236 0
-300 -237 0
-412 -235 0
-413 -236 0
-414 -237 0
-361 -238 0
-362 -239 0
-363 -240 0
-424 -238 0
-425 -239 0
-426 -240 0
-367 -241 0
-368 -242 0
-369 -243 0
-376 -241 0
-377 -242 0
-378 -243 0
-442 -241 0
-443 -242 0
-444 -243 0
-268 -244 0
-269 -245 0
-270 -246 0
-424 -244 0
-425 -245 0
-426 -246 0
-256 -247 0
-257 -248 0
-258 -249 0
-280 -247 0
-281 -248 0
-282 -249 0
-361 -250 0
-362 -251 0
-363 -252 0
-442 -250 0
-443 -251 0
-444 -252 0
-340 -253 0
-341 -254 0
-342 -255 0
-379 -253 0
-380 -254 0
-381 -255 0
-391 -253 0
-392 -254 0
-393 -255 0
-415 -253 0
-416 -254 0
-417 -255 0
-301 -256 0
-302 -257 0
-303 -258 0
-397 -256 0
-398 -257 0
-399 -258 0
-355 -259 0
-356 -260 0
-357 -261 0
-379 -259 0
-380 -260 0
-381 -261 0
-334 -262 0
-335 -263 0
-336 -264 0
-349 -262 0
-350 -263 0
-351 -264 0
-385 -262 0
-386 -263 0
-387 -264 0
-424 -262 0
-425 -263 0
-426 -264 0
-421 -265 0
-422 -266 0
-423 -267 0
-442 -265 0
-443 -266 0
-444 -267 0
-388 -268 0
-389 -269 0
-390 -270 0
-415 -268 0
-416 -269 0
-417 -270 0
-448 -268 0
-449 -269 0
-450 -270 0
-289 -271 0
-290 -272 0
-291 -273 0
-304 -274 0
-305 -275 0
-306 -276 0
-310 -274 0
-311 -275 0
-312 -276 0
-337 -274 0
-338 -275 0
-339 -276 0
-352 -274 0
-353 -275 0
-354 -276 0
-310 -277 0
-311 -278 0
-312 -279 0
-436 -277 0
-437 -278 0
-438 -279 0
-367 -280 0
-368 -281 0
-369 -282 0
-379 -280 0
-380 -281 0
-381 -282 0
-358 -283 0
-359 -284 0
-360 -285 0
-388 -283 0
-389 -284 0
-390 -285 0
-328 -286 0
-329 -287 0
-330 -288 0
-409 -286 0
-410 -287 0
-411 -288 0
-418 -286 0
-419 -287 0
-420 -288 0
-397 -289 0
-398 -290 0
-399 -291 0
-319 -295 0
-320 -296 0
-321 -297 0
-322 -295 0
-323 -296 0
-324 -297 0
-373 -295 0
-374 -296 0
-375 -297 0
-394 -295 0
-395 -296 0
-396 -297 0
-439 -298 0
-440 -299 0
-441 -300 0
-442 -298 0
-443 -299 0
-444 -300 0
-403 -301 0
-404 -302 0
-405 -303 0
-352 -313 0
-353 -314 0
-354 -315 0
-355 -313 0
-356 -314 0
-357 -315 0
-448 -331 0
-449 -332 0
-450 -333 0
-412 -334 0
-413 -335 0
-414 -336 0
-439 -334 0
-440 -335 0
-441 -336 0
-445 -334 0
-446 -335 0
-447 -336 0
-346 -340 0
-347 -341 0
-348 -342 0
-382 -340 0
-383 -341 0
-384 -342 0
-397 -340 0
-398 -341 0
-399 -342 0
-352 -343 0
-353 -344 0
-354 -345 0
-361 -343 0
-362 -344 0
-363 -345 0
-418 -343 0
-419 -344 0
-420 -345 0
-442 -343 0
-443 -344 0
-444 -345 0
-364 -346 0
-365 -347 0
-366 -348 0
-412 -346 0
-413 -347 0
-414 -348 0
-415 -352 0
-416 -353 0
-417 -354 0
-421 -355 0
-422 -356 0
-423 -357 0
-439 -358 0
-440 -359 0
-441 -360 0
-436 -382 0
-437 -383 0
-438 -384 0
-442 -388 0
-443 -389 0
-444 -390 0
-415 -391 0
-416 -392 0
-417 -393 0
-415 -403 0
-416 -404 0
-417 -405 0
-439 -424 0
-440 -425 0
-441 -426 0
-436 -427 0
-437 -428 0
-438 -429 0
